c t mc
c file mc2020_track1_020.cnf
p cnf 3025 1713
625 0
-442 0
443 0
444 0
-469 0
533 0
-534 0
-535 0
-39 0
-42 0
61 0
-83 0
-118 0
-127 0
-128 0
-153 0
-159 0
177 0
-178 0
-196 0
203 0
213 0
-214 0
217 0
-227 0
242 0
-248 0
249 0
252 0
274 0
-319 0
352 0
-491 0
493 0
494 0
477 0
495 0
520 0
522 0
-547 0
-572 0
536 0
553 0
554 0
555 0
559 0
-560 0
561 0
-562 0
-566 0
-603 0
605 0
1466 0
604 0
202 0
152 0
468 0
606 0
607 0
326 0
228 0
327 0
624 0
602 0
601 0
529 0
301 0
103 0
102 0
36 0
528 0
610 0
1 0
176 0
351 0
273 0
201 0
151 0
126 0
580 0
623 0
622 0
576 0
530 0
510 0
496 0
451 0
150 0
101 0
13 0
11 0
441 0
38 0
497 0
609 0
608 0
584 0
527 0
403 0
26 0
17 0
618 0
617 0
550 0
525 0
418 0
189 0
125 0
12 0
417 0
212 0
188 0
58 0
583 0
577 0
531 0
459 0
302 0
157 0
35 0
33 0
276 0
500 0
241 0
41 0
16 0
502 0
582 0
540 0
524 0
427 0
402 0
600 0
250 0
226 0
616 0
615 0
579 0
548 0
511 0
492 0
467 0
466 0
490 0
416 0
465 0
51 0
247 0
246 0
216 0
82 0
551 0
526 0
426 0
401 0
328 0
22 0
7 0
507 0
440 0
377 0
373 0
372 0
263 0
81 0
30 0
29 0
501 0
425 0
375 0
350 0
325 0
300 0
299 0
275 0
225 0
224 0
200 0
175 0
199 0
223 0
158 0
60 0
34 0
597 0
516 0
62 0
10 0
489 0
456 0
181 0
156 0
180 0
123 0
96 0
71 0
95 0
537 0
32 0
483 0
458 0
245 0
236 0
163 0
519 0
174 0
149 0
124 0
148 0
470 0
198 0
173 0
98 0
523 0
160 0
8 0
614 0
613 0
588 0
612 0
611 0
587 0
509 0
508 0
411 0
410 0
337 0
336 0
229 0
116 0
100 0
75 0
99 0
74 0
73 0
72 0
50 0
25 0
49 0
48 0
47 0
46 0
40 0
23 0
558 0
134 0
581 0
552 0
298 0
277 0
21 0
621 0
596 0
389 0
309 0
167 0
592 0
591 0
269 0
57 0
92 0
85 0
385 0
360 0
538 0
433 0
331 0
206 0
204 0
80 0
172 0
31 0
355 0
244 0
482 0
400 0
222 0
371 0
486 0
88 0
215 0
265 0
191 0
435 0
341 0
472 0
68 0
430 0
429 0
194 0
505 0
549 0
488 0
439 0
438 0
414 0
454 0
599 0
285 0
278 0
120 0
409 0
408 0
164 0
293 0
307 0
464 0
475 0
366 0
487 0
55 0
109 0
165 0
284 0
221 0
303 0
397 0
391 0
334 0
404 0
105 0
474 0
142 0
515 0
484 0
138 0
282 0
455 0
575 0
24 0
571 0
45 0
405 0
450 0
220 0
65 0
230 0
473 0
44 0
449 0
20 0
471 0
499 0
141 0
448 0
-76 0
-3 0
-4 0
-37 0
-63 0
-64 0
-89 0
-18 0
-19 0
-97 0
-104 0
-86 0
-117 0
-107 0
-132 0
-154 0
-195 0
-184 0
-185 0
-254 0
-255 0
-238 0
-264 0
-376 0
-353 0
-332 0
-364 0
-344 0
-374 0
-362 0
-369 0
-428 0
-431 0
-457 0
-460 0
-461 0
-476 0
-479 0
-556 0
-539 0
-518 0
-52 0
-281 0
-296 0
-333 0
-110 0
-513 0
166 187 190 -137 140 162 113 0
-2330 -423 447 498 2423 521 0
2434 349 -574 424 2922 598 0
-2328 -423 -447 498 2422 521 0
-2331 447 498 2423 423 521 0
-2176 -384 432 -434 -383 407 0
-2177 384 432 -434 -383 407 0
2435 -349 2922 399 598 -574 0
2434 -399 2922 424 598 -574 0
-2329 -447 498 2422 423 521 0
2920 3007 -574 -620 -598 0
838 -43 -67 -69 15 0
841 -15 67 -69 43 0
-79 -129 130 -2 -28 0
-2889 -590 593 -568 567 0
2288 -437 -413 -463 -462 0
2920 3009 -574 620 -598 0
3009 2921 620 -598 574 0
1685 -283 286 -260 -261 0
-2810 -570 -546 -573 598 0
2028 -346 370 -396 -395 0
1612 239 -240 290 -289 0
840 -43 67 -69 15 0
839 -15 -67 -69 43 0
1686 -310 -308 -259 -260 0
286 283 -261 1687 -260 0
-2891 590 -568 593 567 0
2029 346 370 -396 -395 0
2026 -346 -396 -370 -395 0
3007 2921 -620 -598 574 0
-2460 432 -481 -532 -506 0
2840 -585 -578 -557 -506 0
-2840 585 -578 -557 2758 0
2842 -585 578 -557 -506 0
-2463 -432 481 -532 -506 0
795 9 -56 6 -59 0
-2811 -570 546 -573 598 0
-2812 570 -546 -573 598 0
-2462 481 432 -532 -506 0
-2813 570 546 -573 598 0
-2842 -557 578 2758 585 0
-1332 -169 -219 -193 218 0
2289 -437 413 -462 -463 0
1435 -170 -219 -271 243 0
1434 170 -219 -271 243 0
-2461 -432 -481 -532 -506 0
-1334 -169 -219 193 218 0
-1333 -193 169 -219 218 0
-1335 193 169 -219 218 0
2027 346 -396 -370 -395 0
2435 -424 2922 598 -574 0
1207 -161 137 -162 0
-1207 -161 137 162 0
998 -108 -84 -135 0
-1206 -161 -137 162 0
1181 -155 130 -129 0
928 -90 -66 -91 0
932 -91 -67 -93 0
-935 91 67 93 0
935 91 67 -93 0
-998 -108 135 133 0
-934 91 -67 93 0
-1208 161 -137 162 0
1208 -162 161 -137 0
-1209 161 162 137 0
1209 -162 137 161 0
140 166 139 162 0
-166 -140 139 162 0
-115 143 140 -93 0
943 93 69 -94 0
-2221 419 395 420 0
2221 419 395 -420 0
-1239 145 170 -169 0
2230 -422 -398 -423 0
-2234 -399 -423 424 0
2234 -399 -423 -424 0
-2235 399 -423 424 0
2235 399 -423 -424 0
-943 93 69 94 0
1246 197 -171 -147 0
-1249 147 171 -197 0
1249 147 171 197 0
942 93 -69 -94 0
-942 93 -69 94 0
941 -93 69 -94 0
-941 -93 69 94 0
-1248 -147 171 -197 0
1248 -147 171 197 0
-1247 -197 -171 147 0
940 -93 -69 -94 0
-940 -93 -69 94 0
-933 -91 67 93 0
934 91 -67 -93 0
-155 131 182 106 0
1206 -161 -137 -162 0
155 -131 106 182 0
-878 78 77 -53 0
877 -78 53 -77 0
-877 78 53 -77 0
-1386 -183 -207 208 0
1386 -183 -207 -208 0
-928 -90 -66 91 0
731 15 -66 -14 0
918 112 113 -14 0
919 87 113 14 0
-919 87 -113 14 0
1000 108 -84 -135 0
-1304 -162 -186 187 0
1304 -162 -186 -187 0
-1305 -186 162 187 0
1305 -186 162 -187 0
-1306 -162 186 187 0
1306 -162 186 -187 0
-1307 186 162 187 0
1307 186 162 -187 0
883 78 -79 54 0
1238 -170 -145 -169 0
880 -78 -54 -79 0
1239 -170 145 -169 0
-1240 169 170 -145 0
1240 -170 -145 169 0
-1241 169 170 145 0
1241 -170 169 145 0
-1323 -192 166 190 0
1323 192 166 190 0
879 -78 53 77 0
-1328 193 -168 -192 0
1328 -193 -168 -192 0
-1329 168 -192 193 0
1329 168 -192 -193 0
-1330 193 192 -168 0
1330 -193 192 -168 0
-1331 168 192 193 0
1331 168 192 -193 0
1332 -193 -169 219 0
1335 193 169 219 0
-879 78 53 77 0
-1246 -197 -171 -147 0
2079 -384 359 383 0
1247 197 -171 147 0
878 -78 77 -53 0
2090 361 386 -387 0
-2092 -363 -387 388 0
2092 -363 -387 -388 0
-2093 363 -387 388 0
2093 363 -387 -388 0
-2094 -363 387 388 0
2094 -363 387 -388 0
-2095 363 387 388 0
2095 363 387 -388 0
339 -390 -388 -365 0
-419 -415 -390 -394 0
-2113 393 368 -392 0
-2236 -399 423 424 0
2236 -399 423 -424 0
-2237 399 423 424 0
2237 399 423 -424 0
-2264 -406 432 -407 0
2264 -432 -407 -406 0
2136 349 -398 -399 0
-2137 -349 -398 399 0
2137 -349 -398 -399 0
2266 -432 -407 406 0
2138 349 398 -399 0
-2139 -349 398 399 0
2139 -349 398 -399 0
-2160 -380 -379 -406 0
2160 406 -379 -380 0
2072 -382 -358 -383 0
-2073 -382 358 383 0
2073 -382 358 -383 0
-2074 382 -358 383 0
2074 382 -358 -383 0
-2075 382 358 383 0
2075 382 358 -383 0
-2076 -359 -383 384 0
2076 -359 -383 -384 0
-2077 359 -383 384 0
2077 -384 359 -383 0
-2078 -359 383 384 0
2078 -359 383 -384 0
-2079 384 359 383 0
-2166 -382 -406 407 0
2083 384 386 361 0
2081 -384 386 361 0
-2090 361 386 387 0
-2168 -382 406 407 0
2168 -382 406 -407 0
-2169 382 406 407 0
2169 382 406 -407 0
2201 -415 413 390 0
-2200 -390 413 415 0
2199 -413 390 -415 0
-2199 -413 390 415 0
2198 -415 -413 -390 0
-2198 -413 415 -390 0
-2201 415 413 390 0
2200 -415 413 -390 0
-2218 -419 420 -395 0
2218 -419 -420 -395 0
-2219 420 395 -419 0
2219 -420 395 -419 0
-2220 419 -395 420 0
2220 419 -395 -420 0
-2265 -406 432 407 0
2265 -406 -432 407 0
-2266 -407 406 432 0
-2230 -422 -398 423 0
-2267 407 406 432 0
2267 -432 406 407 0
-2284 437 -436 -412 0
2284 -437 -412 -436 0
-2291 437 463 413 0
2291 437 413 -463 0
-2290 437 -413 463 0
2290 437 -413 -463 0
-2289 463 413 -437 0
-2320 -445 -421 446 0
2320 -445 -421 -446 0
-2321 -445 421 446 0
2321 -445 421 -446 0
-2322 446 -421 445 0
2322 -446 -421 445 0
-2323 445 421 446 0
2323 445 421 -446 0
-2324 -446 -422 447 0
2324 -446 -422 -447 0
-841 43 67 69 0
2166 -382 -406 -407 0
-2167 382 -406 407 0
2167 382 -406 -407 0
1395 183 -210 -209 0
1394 -209 -183 -210 0
-1394 -209 -183 210 0
-1492 -234 -210 235 0
1492 -234 -210 -235 0
-1493 -234 210 235 0
1493 -235 -234 210 0
-1494 -210 235 234 0
1494 -235 234 -210 0
-1495 210 235 234 0
794 -59 -6 9 0
749 70 69 15 0
-795 -56 59 6 0
730 -15 -66 -14 0
1495 -235 234 210 0
-730 -15 -66 14 0
797 -59 56 9 0
683 27 2 -28 0
-731 15 66 -14 0
731 15 66 14 0
-1107 111 136 135 0
-1139 143 119 144 0
1024 -115 -90 114 0
-1024 115 -90 114 0
1023 90 -114 -115 0
-1147 146 145 121 0
1442 -197 271 -272 0
1334 193 -169 219 0
1333 -193 169 219 0
730 -15 14 -90 0
-731 15 -66 14 0
-682 27 28 -2 0
-1417 239 -240 190 0
681 -27 2 -28 0
-681 -27 28 2 0
680 -27 -28 -2 0
1397 183 -210 209 0
-1397 183 210 209 0
1396 209 -183 -210 0
-1396 209 -183 210 0
-680 -27 28 -2 0
-1416 -240 -190 239 0
-1389 207 208 183 0
-53 -27 2 -28 0
-1395 183 210 -209 0
-53 2 -77 -28 0
-1001 108 84 -111 0
53 -27 28 2 0
-999 -108 84 -111 0
-306 305 -258 -283 0
-295 -320 271 -321 0
320 -321 -297 272 0
-295 320 271 321 0
-320 321 -297 272 0
357 -358 308 306 0
1138 -119 143 -144 0
682 27 -28 -2 0
-683 27 28 2 0
1443 197 271 -272 0
-305 306 -280 -256 0
305 306 -257 283 0
-305 306 -283 -258 0
-357 358 308 306 0
2 53 28 -77 0
-306 -257 283 -305 0
357 -358 -335 -310 0
-306 305 -280 -256 0
-730 -15 66 -14 0
748 70 -15 69 0
-838 -43 -67 69 0
1388 -183 -208 207 0
-839 43 -67 69 0
1390 183 -209 -208 0
-1390 183 209 -208 0
-840 -43 67 69 0
-1388 -183 208 207 0
-1392 183 209 208 0
1387 183 -207 -208 0
-876 78 -53 -77 0
1391 -183 -208 -209 0
1392 183 -209 208 0
-1393 -183 208 209 0
1393 -183 208 -209 0
-1391 -183 -208 209 0
1389 207 -208 183 0
-1387 183 -207 208 0
115 -143 -140 93 0
876 -78 -53 -77 0
93 -115 -140 143 0
1052 -122 121 70 0
-1051 -70 -121 122 0
-1092 133 -106 -108 0
1087 -131 106 130 0
1092 -133 -106 -108 0
-1087 130 106 131 0
-1093 133 -106 108 0
1093 -133 -106 108 0
-1094 133 106 -108 0
1094 -133 106 -108 0
-1095 133 106 108 0
1095 -133 106 108 0
-1104 -111 136 -135 0
1104 -111 -136 -135 0
-79 -106 -2 -28 0
-1105 111 136 -135 0
1105 111 -136 -135 0
-883 78 79 54 0
882 78 -79 -54 0
-882 78 79 -54 0
-1238 -169 170 -145 0
-881 -78 54 79 0
-1108 -112 137 -136 0
-880 -78 79 -54 0
1109 -136 -137 112 0
-1110 -112 136 137 0
1110 -112 136 -137 0
-1111 136 137 112 0
1111 136 -137 112 0
-114 -139 -137 113 0
1053 -122 -70 121 0
-1120 -115 -139 140 0
1120 -115 -139 -140 0
-1121 115 -139 140 0
1121 115 -139 -140 0
-1122 -115 139 140 0
1122 -115 139 -140 0
-1123 115 139 140 0
1123 115 139 -140 0
-1053 122 -70 121 0
1019 14 -114 -113 0
-1019 14 114 -113 0
1018 -14 -114 -113 0
-1018 -14 114 -113 0
-1052 122 121 70 0
1051 -70 -121 -122 0
-1181 155 130 -129 0
1050 -122 70 -121 0
-1050 122 70 -121 0
-93 -143 -140 -115 0
93 115 143 140 0
-93 -140 143 115 0
-93 115 140 -143 0
-1136 -119 -143 144 0
933 -91 67 -93 0
-932 -91 -67 93 0
93 -143 140 -115 0
1025 90 114 -115 0
-1025 90 114 115 0
1136 -119 -143 -144 0
-1137 -143 119 144 0
1137 -143 119 -144 0
-1138 -119 143 144 0
-1106 -111 136 135 0
1106 135 -136 -111 0
881 -78 -79 54 0
1107 135 -136 111 0
1139 143 119 -144 0
1108 -136 -137 -112 0
-1109 -136 137 112 0
1147 145 -146 121 0
-1148 -122 -146 147 0
-1023 90 -114 115 0
1022 -115 -90 -114 0
1148 -122 -146 -147 0
-1149 122 -146 147 0
1149 122 -146 -147 0
-1150 -122 146 147 0
1150 -122 146 -147 0
-1151 122 146 147 0
1151 122 146 -147 0
-1022 115 -90 -114 0
1021 14 -114 113 0
-1021 14 114 113 0
1020 -14 113 -114 0
-1020 -14 113 114 0
1717 -291 267 -292 0
-1718 291 -267 292 0
-1719 291 267 292 0
917 112 113 -87 0
-1000 108 135 133 0
-1723 292 268 294 0
1723 292 268 -294 0
1722 292 -268 -294 0
-1722 292 -268 294 0
1721 -292 268 -294 0
-1721 -292 268 294 0
1720 -292 -268 -294 0
-1728 -270 -294 295 0
1728 -270 -294 -295 0
-1729 -294 270 295 0
1729 -294 270 -295 0
-1730 -270 294 295 0
1730 -270 294 -295 0
-1731 294 270 295 0
1731 294 270 -295 0
-1766 305 -304 -280 0
-1583 258 -257 233 0
1996 -363 -361 -338 0
-1996 363 -361 -338 0
1995 361 338 -363 0
-1995 361 338 363 0
1994 -363 -338 361 0
-1994 363 -338 361 0
-311 338 312 -335 0
1958 251 -329 -354 0
-1958 251 -329 354 0
1943 348 324 -349 0
-1943 348 324 349 0
1942 -349 -324 348 0
-1942 349 -324 348 0
1941 -348 324 -349 0
-1941 -348 324 349 0
-1707 239 288 289 0
1707 239 288 -289 0
290 -289 1613 240 0
-1715 291 266 290 0
1715 -291 266 290 0
-1716 -291 -267 292 0
1716 -291 -267 -292 0
-1717 -291 267 292 0
1704 -289 -288 -239 0
-1705 289 239 -288 0
1718 291 -267 -292 0
-1706 -239 288 289 0
1719 291 267 -292 0
1808 314 -290 -315 0
-1809 314 290 315 0
1809 314 290 -315 0
-1810 -315 -291 316 0
1810 -315 -291 -316 0
-1811 -315 291 316 0
1811 -315 291 -316 0
-1812 315 -291 316 0
1812 315 -291 -316 0
315 316 291 -1813 0
1813 -316 291 315 0
-1814 -292 -316 317 0
1814 -292 -316 -317 0
-1815 292 -316 317 0
1815 292 -316 -317 0
-1816 -292 316 317 0
1816 -292 316 -317 0
1583 -257 233 -258 0
235 261 -260 -211 0
-192 266 240 -1613 0
1610 -239 290 -289 0
-1612 -290 239 -240 0
-1622 -267 -243 268 0
1622 -267 -243 -268 0
-1623 -267 243 268 0
1623 -267 243 -268 0
-1624 267 -243 268 0
1624 267 -243 -268 0
-1625 267 243 268 0
1625 267 243 -268 0
-310 1687 259 -308 0
-1696 -262 287 -286 0
1696 -262 -286 -287 0
-1697 287 262 -286 0
1697 -286 -287 262 0
-1698 286 287 -262 0
1698 286 -287 -262 0
-1699 286 287 262 0
1699 286 -287 262 0
-1704 -239 289 -288 0
-1904 -315 -339 340 0
1904 -315 -339 -340 0
1705 -289 239 -288 0
1905 315 -339 -340 0
1706 -239 288 -289 0
1906 -315 339 -340 0
-1907 315 340 339 0
1907 -340 339 315 0
-342 340 317 -316 0
-316 342 -317 340 0
-1916 -342 -318 343 0
1916 -342 -318 -343 0
-1917 318 343 -342 0
1917 318 -343 -342 0
-1918 342 -318 343 0
1918 342 -318 -343 0
-1919 318 343 342 0
1919 318 -343 342 0
-1924 -320 343 345 0
1924 -320 343 -345 0
1997 -363 -361 338 0
-2002 -340 365 339 0
1929 321 -345 -346 0
1864 -305 -330 -329 0
-1865 305 -329 330 0
-1866 -305 329 330 0
1926 -320 -343 -345 0
-1926 -320 -343 345 0
1866 -305 329 -330 0
-1930 -321 345 346 0
1865 305 -330 -329 0
1930 -321 345 -346 0
-1929 321 -345 346 0
346 321 345 -1931 0
1928 -321 -345 -346 0
-1928 -321 -345 346 0
1927 320 -343 -345 0
-1927 320 -343 345 0
1925 320 343 -345 0
1931 -346 345 321 0
1932 -346 -322 -347 0
-1925 320 343 345 0
-1932 -346 -322 347 0
-1867 305 329 330 0
1867 305 329 -330 0
-2065 381 -380 356 0
-2027 346 396 -370 0
-1905 315 -339 340 0
-2029 346 396 370 0
-1906 -315 340 339 0
-2013 342 -365 367 0
1940 -349 -324 -348 0
-1940 349 -324 -348 0
1939 -348 323 347 0
-1939 348 323 347 0
1938 -323 347 -348 0
-1938 -323 347 348 0
1937 -348 323 -347 0
-1937 348 323 -347 0
1936 -347 -323 -348 0
-1936 -347 -323 348 0
1935 346 322 -347 0
-1935 346 322 347 0
1934 346 -322 -347 0
-1934 346 -322 347 0
1933 -346 322 -347 0
-1933 -346 322 347 0
-1997 363 -361 338 0
2002 -340 339 -365 0
-2003 340 339 365 0
2003 340 339 -365 0
-2004 -340 -339 365 0
2004 -340 -339 -365 0
-2005 340 -339 365 0
2005 340 -339 -365 0
-2012 -342 -365 367 0
2013 342 -365 -367 0
2011 342 365 -367 0
-2011 342 365 367 0
2010 -342 365 -367 0
-2010 -342 365 367 0
-2072 -382 -358 383 0
-382 381 357 2071 0
-2071 381 357 382 0
2070 381 -357 -382 0
-2070 381 -357 382 0
2069 -381 357 -382 0
-2069 -381 357 382 0
2068 -381 -357 -382 0
-2068 -381 -357 382 0
2065 -381 -380 356 0
2904 -595 -594 -570 0
-2028 396 370 -346 0
-2906 -570 594 595 0
2012 -342 -365 -367 0
2907 570 594 -595 0
-2889 -590 567 -619 0
-3002 -595 -619 620 0
3002 -595 -619 -620 0
-3003 595 -619 620 0
3003 595 -619 -620 0
-3004 620 619 -595 0
3004 -620 619 -595 0
-3005 620 619 595 0
3005 -620 619 595 0
2811 -570 546 -598 0
2715 545 521 -546 0
-2333 424 -498 574 0
-2756 -506 557 -532 0
2756 -506 -532 -557 0
2758 585 -557 506 0
2349 452 -453 378 0
480 406 481 453 0
-2783 -563 -514 564 0
-2288 -437 -413 463 0
2330 -423 447 -498 0
2784 563 514 -564 0
2463 -432 481 532 0
2462 481 432 532 0
2475 -434 432 -485 0
-485 514 -463 -462 0
415 -514 541 463 0
2810 -570 -546 -598 0
2813 570 546 -598 0
2812 570 -546 -598 0
2922 -573 598 -574 0
2537 -452 2733 578 0
2873 -586 589 564 0
586 563 -589 -2875 0
2875 586 589 564 0
-586 563 -589 -2873 0
-2886 590 589 -565 0
2886 -590 589 -565 0
-2904 595 -594 -570 0
-2809 545 569 570 0
-2905 595 -594 570 0
2905 -595 -594 570 0
2113 -393 368 -392 0
2906 -595 594 -570 0
-2907 595 594 570 0
-2117 394 -368 -393 0
2117 -394 -368 -393 0
-2118 394 368 393 0
2118 -394 368 393 0
-2136 349 -398 399 0
-347 -396 421 -422 0
-2119 393 394 -368 0
2119 -394 -368 393 0
-2026 396 -370 -346 0
2123 394 370 -395 0
-2120 395 -370 -394 0
-2123 394 370 395 0
2122 -395 -370 394 0
-2122 395 -370 394 0
2121 -394 370 -395 0
-2121 -394 370 395 0
2120 -395 -370 -394 0
-2782 -563 514 564 0
2782 -563 514 -564 0
2783 -563 -564 -514 0
-2784 563 514 564 0
-2138 349 398 399 0
-2785 563 564 -514 0
2785 563 -564 -514 0
-2798 568 -567 -543 0
2798 -568 -567 -543 0
-2799 543 -567 568 0
2799 543 -567 -568 0
-2800 -543 568 567 0
2800 -543 -568 567 0
-2801 543 567 568 0
2801 543 567 -568 0
-2806 -545 -569 570 0
2806 -545 -569 -570 0
-2807 545 -569 570 0
2807 545 -569 -570 0
-2808 -545 569 570 0
2808 -545 569 -570 0
-1795 -311 287 312 0
1795 -311 287 -312 0
-1796 311 -287 312 0
2809 545 569 -570 0
-1797 287 311 312 0
-2116 394 368 -393 0
2116 -394 368 -393 0
-1802 -289 -313 314 0
1802 -289 -313 -314 0
-1803 289 -313 314 0
1803 289 -313 -314 0
-1804 -289 313 314 0
1804 -289 313 -314 0
-1805 289 313 314 0
1805 289 313 -314 0
-1806 -290 -314 315 0
1806 -290 -314 -315 0
-1807 315 290 -314 0
1807 -315 290 -314 0
-1808 314 -290 315 0
2333 424 2922 -574 0
2332 -424 -573 -574 0
2537 -452 -478 503 0
1835 -321 297 -322 0
-1835 -321 297 322 0
-1836 321 322 -297 0
1836 321 -322 -297 0
-1837 321 297 322 0
1834 -321 -322 -297 0
-1834 -321 322 -297 0
-1720 -292 -268 294 0
1817 292 316 -317 0
1837 321 297 -322 0
-1864 -305 -329 330 0
-1817 292 316 317 0
1766 -305 -304 -280 0
-1767 -304 280 305 0
1767 -304 280 -305 0
-1768 305 304 -280 0
1768 -305 304 -280 0
-1769 305 304 280 0
1769 -305 304 280 0
-1776 306 308 283 0
-1774 308 283 -306 0
-1794 312 -287 -311 0
1794 -311 -287 -312 0
-2714 545 -521 546 0
2714 545 -521 -546 0
-2715 545 521 546 0
1796 311 -287 -312 0
2325 -446 422 -447 0
1797 287 311 -312 0
2326 446 -422 -447 0
-2327 446 422 447 0
2327 446 422 -447 0
2329 423 -447 -498 0
2328 -423 -447 -498 0
2331 423 447 -498 0
2332 -424 2922 -574 0
-2332 -424 -498 574 0
2333 424 -573 -574 0
-2346 -452 -378 453 0
2346 -452 -378 -453 0
-2347 -452 453 378 0
2347 -452 -453 378 0
-2348 452 -378 453 0
2348 452 -378 -453 0
-2349 452 453 378 0
2536 452 -478 503 0
-2548 504 503 -478 0
2682 563 -463 512 0
2536 452 578 2733 0
-2475 -434 432 485 0
2548 -504 503 -478 0
2460 432 -481 532 0
2553 480 506 504 0
2606 -543 -544 517 0
-434 485 -462 -514 0
-2553 -506 480 504 0
2552 504 -480 506 0
2551 480 506 -504 0
-2552 504 -480 -506 0
2550 -504 -480 506 0
2461 -432 -481 532 0
-2551 -506 480 -504 0
-2325 -446 422 447 0
-2326 446 -422 447 0
-2550 -504 -480 -506 0
2713 -545 521 -546 0
-2713 -545 521 546 0
2712 -545 -521 -546 0
-2712 -545 -521 546 0
-2606 517 -543 544 0
2698 -542 541 -517 0
-2698 542 541 -517 0
-2682 -563 -463 512 0
-2683 -563 463 512 0
2683 563 463 512 0
1322 -166 192 0
999 -108 111 0
1001 108 111 0
1829 295 -320 0
-1275 179 -129 0
1274 -179 129 0
1275 -179 -129 0
-1274 179 129 0
-133 -183 182 0
-1829 320 295 0
-340 342 317 0
1370 -179 205 0
-1371 179 -205 0
322 -272 323 0
-272 323 -324 0
-314 339 -338 0
-312 313 -338 0
313 -338 311 0
251 304 -329 0
1557 -2 -251 0
-268 271 270 0
1525 218 -243 0
-1525 218 243 0
1524 -218 -243 0
-53 -2 28 0
-2083 384 -386 0
1585 -258 257 0
-234 -258 259 0
-259 235 -260 0
260 -261 -211 0
211 -261 -260 0
262 -261 237 0
1511 -239 237 0
-290 240 -1613 0
-1511 239 237 0
1417 240 190 0
1509 -239 -237 0
-1618 267 -266 0
-311 -335 -361 0
-357 358 359 0
-133 183 -182 0
-306 -357 -358 0
133 -182 -183 0
-183 161 186 0
-1685 -283 -286 0
-310 -311 -286 0
-312 313 -288 0
207 205 182 0
-379 -330 -380 0
335 313 -338 0
143 -168 166 0
1321 192 -190 0
-1322 -166 -192 0
140 -166 -139 0
-1828 -295 320 0
1828 -295 -320 0
2733 578 -503 0
452 -2536 -578 0
2922 498 -574 0
87 84 14 0
-87 -84 14 0
-434 386 -436 0
387 -412 -386 0
-28 -2 56 0
-2285 437 412 0
2285 -437 412 0
-2286 437 436 0
2286 -437 436 0
-340 -342 -317 0
316 -342 -317 0
342 316 317 0
-146 -171 -170 0
1582 -233 -258 0
-1524 -218 243 0
-1585 258 257 0
1426 -193 -218 0
-1426 -193 218 0
-1610 -239 -290 0
-1321 -192 -190 0
1416 240 -190 0
210 -186 -211 0
-321 -320 297 0
253 279 205 0
-79 -106 56 0
-253 251 -279 0
279 205 -251 0
305 306 280 0
53 77 -28 0
-305 -306 280 0
-53 77 28 0
1776 306 -308 0
1774 -306 -308 0
1960 -354 -251 0
-1145 146 -145 0
-166 140 -162 0
1145 -145 -146 0
-574 -573 498 0
1713 -291 -290 0
155 131 -182 0
-2064 381 -356 0
1180 -155 -130 0
321 -320 -271 0
-321 320 -271 0
-1180 155 -130 0
2064 -381 -356 0
-356 -330 354 0
-2067 381 380 0
1179 -155 129 0
379 354 -378 0
-155 -131 -182 0
-306 -357 356 0
-2048 378 -251 0
2067 -381 380 0
-1179 155 129 0
-1959 329 354 0
-133 111 -135 0
-133 -84 -135 0
27 -28 53 0
-306 357 358 0
-357 -358 -308 0
-321 320 295 0
320 321 297 0
-320 295 321 0
84 -111 135 0
-53 27 28 0
-305 -306 256 0
-140 -162 166 0
-345 -368 -370 0
-357 306 -356 0
-2081 -384 -386 0
387 -2088 -386 0
-135 136 161 0
2088 -387 -386 0
-2091 387 -361 0
2091 -387 -361 0
1146 -121 -146 0
-1146 146 -121 0
-2112 393 -368 0
208 232 233 0
-287 -288 237 0
-231 232 -207 0
-1472 -205 -231 0
-1475 231 205 0
-1713 291 -290 0
-2158 -406 379 0
-1714 291 -266 0
1714 -291 -266 0
-1370 -179 -205 0
-1443 197 272 0
-1435 -170 271 0
1427 193 -218 0
-294 318 317 0
-1582 258 -233 0
-256 -257 -232 0
1576 -256 -231 0
-1576 -231 256 0
1575 231 -256 0
-1575 231 256 0
1472 -205 231 0
1475 -231 205 0
1371 179 205 0
-1556 2 251 0
1556 2 -251 0
1959 -354 329 0
306 357 356 0
-306 357 -356 0
-359 -310 -335 0
-1960 -251 354 0
-357 -358 335 0
357 358 335 0
133 183 182 0
-343 -367 368 0
-1686 -259 310 0
-1687 310 259 0
-1687 283 -286 0
-283 -258 257 0
53 -28 -2 0
305 306 256 0
-280 279 -231 0
-1442 -197 272 0
-1434 170 271 0
260 261 211 0
-187 -237 -211 0
-1509 239 -237 0
1620 266 -267 0
-1620 267 266 0
1618 -267 -266 0
-209 234 233 0
-635 5 6 0
634 -5 -6 0
2161 406 380 0
-56 -54 106 0
-393 419 415 0
639 -6 -9 0
638 6 -9 0
-639 9 -6 0
1079 -129 -79 0
-1079 -79 129 0
1078 79 -129 0
-638 9 6 0
-1085 131 -130 0
-643 9 14 0
643 9 -14 0
-652 15 -14 0
652 -15 -14 0
-653 15 14 0
653 -15 14 0
-594 569 -593 0
2889 -590 -593 0
2889 593 619 0
2887 -590 565 0
-2887 590 565 0
-2417 445 521 0
2417 445 -521 0
-678 27 -2 0
1085 -131 -130 0
-2870 586 585 0
2868 -586 -585 0
-2868 586 -585 0
-2758 -585 -557 0
2760 585 557 0
678 -27 -2 0
-1086 131 -106 0
-347 -396 398 0
-452 -2537 -578 0
2923 574 598 0
119 -94 121 0
590 593 619 0
635 5 -6 0
119 -70 121 0
145 121 144 0
94 70 -121 0
1041 94 -119 0
2891 590 -593 0
-1041 94 119 0
-2243 452 251 0
-2796 -542 567 0
-632 5 2 0
-415 -514 -517 0
-28 -54 -2 0
2796 -542 -567 0
-394 393 -419 0
-2115 393 392 0
-393 419 390 0
2112 -393 -368 0
-2622 -573 -498 0
2158 379 406 0
2622 -498 573 0
-634 -5 6 0
1086 -131 -106 0
-2161 -406 380 0
1040 -94 -119 0
-633 5 -2 0
632 -5 2 0
633 -5 -2 0
-642 14 -9 0
642 -14 -9 0
-66 14 -90 0
-742 43 -15 0
589 -563 564 0
358 357 -308 0
2884 -590 -589 0
-2884 590 -589 0
-1040 -94 119 0
2870 -586 585 0
-1078 79 129 0
-1557 251 -2 0
-749 15 -70 0
-677 27 2 0
677 -27 2 0
-43 742 -15 0
544 569 568 0
-544 -569 568 0
544 -568 -569 0
-544 569 -568 0
-743 15 43 0
2177 384 434 0
2176 -384 434 0
412 -388 413 0
743 15 -43 0
15 43 69 0
-43 -15 69 0
-748 -15 -70 0
2115 -393 392 0
2797 542 -567 0
-2797 542 567 0
2231 -423 398 0
-2231 423 398 0
87 -111 -112 0
-87 -111 112 0
2680 563 -512 0
-2232 423 422 0
2232 -423 422 0
-2760 -585 557 0
133 84 135 0
2757 -557 532 0
-2757 557 532 0
-2242 452 -251 0
2243 -452 251 0
-794 -6 59 0
997 -108 -106 0
-997 108 -106 0
995 -108 106 0
-995 108 106 0
-797 56 59 0
2754 -557 506 0
-2754 557 506 0
-2423 447 -498 0
-902 -59 84 0
-2422 -447 -498 0
-463 -514 -517 0
462 514 485 0
-169 -168 144 0
-140 -139 166 0
-1427 193 218 0
-2317 445 420 0
2696 -542 -541 0
2316 -445 -420 0
-2606 543 -544 0
2608 -517 -544 0
542 517 -543 0
-2708 545 -544 0
-2699 517 542 0
-2696 542 -541 0
-56 -54 6 0
87 112 111 0
2699 -542 517 0
2708 -545 -544 0
-2710 545 544 0
-87 -112 111 0
-420 421 -396 0
-421 -420 396 0
2710 -545 544 0
-2316 445 -420 0
420 -421 -396 0
420 396 421 0
-835 67 -66 0
930 -91 90 0
-930 91 90 0
929 -91 66 0
-929 91 66 0
835 -67 -66 0
-837 67 66 0
-917 -87 -113 0
2623 498 573 0
-918 -113 -14 0
-2623 -573 498 0
2416 -445 -521 0
87 -14 -84 0
-87 84 -14 0
-2608 544 -517 0
-406 453 -481 0
480 -478 453 0
837 -67 66 0
903 -84 59 0
-437 -434 -462 0
-903 84 59 0
902 -59 -84 0
-2416 521 -445 0
-406 -453 481 0
2606 544 543 0
2317 420 -445 0
-453 406 -481 0
2445 -478 453 0
-2445 478 453 0
-2474 485 434 0
2549 -504 478 0
2444 -453 -478 0
-2444 -453 478 0
-2549 504 478 0
2473 -432 -485 0
2242 -452 -251 0
2546 -504 -503 0
-512 434 485 0
-2546 504 -503 0
503 -578 -478 0
2474 -485 434 0
-2473 -432 485 0
-2680 -563 -512 0
-485 462 -514 0
-564 -565 -541 0
-2536 452 -503 0
-512 463 -514 0
-2537 -452 -503 0
367 390 -392 0
314 -339 0
517 -541 0
251 -378 0
574 573 0
-354 -379 0
378 -379 0
335 361 0
-432 434 0
324 272 0
-359 -358 0
-421 422 0
-113 -190 0
-304 -279 0
-503 478 0
-235 -261 0
268 -270 0
394 419 0
-270 -271 0
396 -398 0
329 -251 0
-323 272 0
258 -259 0
-235 260 0
-589 -564 0
260 259 0
396 395 0
-262 -237 0
422 398 0
-262 261 0
514 -541 0
-182 -207 0
1613 -266 0
-239 240 0
379 380 0
412 386 0
-166 -190 0
146 171 0
-413 388 0
-69 -70 0
-485 512 0
-453 -480 0
-106 -130 0
169 -144 0
-119 -121 0
294 -318 0
-190 -187 0
-317 -318 0
-166 168 0
-143 168 0
-114 -190 0
-113 139 0
338 -313 0
-113 -112 0
77 -2 0
-14 90 0
-542 543 0
-434 512 0
517 514 0
135 -161 0
478 -480 0
-354 356 0
-407 434 0
-84 111 0
-162 -190 0
79 106 0
-322 -323 0
-323 297 0
324 -323 0
462 463 0
183 -186 0
437 462 0
-186 -161 0
436 434 0
297 324 0
-498 -521 0
-283 -308 0
462 434 0
289 -290 0
383 434 0
436 -386 0
-304 -251 0
169 168 0
-413 -412 0
-218 219 0
543 -517 0
260 310 0
260 -286 0
2 54 0
-54 -130 0
261 -286 0
209 -234 0
343 -368 0
-234 -233 0
329 279 0
-368 367 0
-237 288 0
-182 -106 0
335 310 0
361 311 0
-279 -205 0
187 237 0
512 514 0
258 283 0
280 231 0
-279 280 0
347 -398 0
356 330 0
211 186 0
-259 234 0
192 -266 0
564 565 0
541 565 0
345 370 0
370 368 0
207 -232 0
-2733 -578 0
-144 -145 0
-205 -207 0
-121 -145 0
286 311 0
308 310 0
211 237 0
412 -387 0
170 171 0
211 -210 0
219 271 0
-243 271 0
-367 392 0
-619 -593 0
392 -390 0
365 390 0
390 -339 0
388 390 0
573 -598 0
129 -130 0
2048 -378 0
66 90 0
-136 -161 0
28 54 0
56 -6 0
-9 59 0
272 -271 0
287 288 0
532 506 0
-233 -232 0
-208 -233 0
338 -339 0
231 -232 0
311 310 0
232 257 0
256 257 0
-386 -361 0
593 594 0
137 139 0
-569 594 0
568 -593 0
-240 -266 0
-567 619 0
-481 -480 0
-190 137 0
139 114 0
380 330 0
312 -313 0
288 -313 0
